p gcnf 437 1206 1206
{1} 1 2 0
{2} 1 19 0
{3} -2 -19 -1 0
{4} 36 -37 0
{5} 36 -54 0
{6} 37 54 -36 0
{7} 55 37 0
{8} 55 -53 0
{9} -37 53 -55 0
{10} -55 -36 56 0
{11} -56 55 0
{12} -56 36 0
{13} 57 -37 0
{14} 57 -53 0
{15} 37 53 -57 0
{16} 58 37 0
{17} 58 -52 0
{18} -37 52 -58 0
{19} -58 -57 59 0
{20} -59 58 0
{21} -59 57 0
{22} 60 -37 0
{23} 60 -52 0
{24} 37 52 -60 0
{25} 61 37 0
{26} 61 -51 0
{27} -37 51 -61 0
{28} -61 -60 62 0
{29} -62 61 0
{30} -62 60 0
{31} 63 -37 0
{32} 63 -51 0
{33} 37 51 -63 0
{34} 64 37 0
{35} 64 -50 0
{36} -37 50 -64 0
{37} -64 -63 65 0
{38} -65 64 0
{39} -65 63 0
{40} 66 -37 0
{41} 66 -50 0
{42} 37 50 -66 0
{43} 67 37 0
{44} 67 -49 0
{45} -37 49 -67 0
{46} -67 -66 68 0
{47} -68 67 0
{48} -68 66 0
{49} 69 -37 0
{50} 69 -49 0
{51} 37 49 -69 0
{52} 70 37 0
{53} 70 -48 0
{54} -37 48 -70 0
{55} -70 -69 71 0
{56} -71 70 0
{57} -71 69 0
{58} 72 -37 0
{59} 72 -48 0
{60} 37 48 -72 0
{61} 73 37 0
{62} 73 -47 0
{63} -37 47 -73 0
{64} -73 -72 74 0
{65} -74 73 0
{66} -74 72 0
{67} 75 -37 0
{68} 75 -47 0
{69} 37 47 -75 0
{70} 76 37 0
{71} 76 -46 0
{72} -37 46 -76 0
{73} -76 -75 77 0
{74} -77 76 0
{75} -77 75 0
{76} 78 -37 0
{77} 78 -46 0
{78} 37 46 -78 0
{79} 79 37 0
{80} 79 -45 0
{81} -37 45 -79 0
{82} -79 -78 80 0
{83} -80 79 0
{84} -80 78 0
{85} 81 -37 0
{86} 81 -45 0
{87} 37 45 -81 0
{88} 82 37 0
{89} 82 -44 0
{90} -37 44 -82 0
{91} -82 -81 83 0
{92} -83 82 0
{93} -83 81 0
{94} 84 -37 0
{95} 84 -44 0
{96} 37 44 -84 0
{97} 85 37 0
{98} 85 -43 0
{99} -37 43 -85 0
{100} -85 -84 86 0
{101} -86 85 0
{102} -86 84 0
{103} 87 -37 0
{104} 87 -43 0
{105} 37 43 -87 0
{106} 88 37 0
{107} 88 -42 0
{108} -37 42 -88 0
{109} -88 -87 89 0
{110} -89 88 0
{111} -89 87 0
{112} 90 -37 0
{113} 90 -42 0
{114} 37 42 -90 0
{115} 91 37 0
{116} 91 -41 0
{117} -37 41 -91 0
{118} -91 -90 92 0
{119} -92 91 0
{120} -92 90 0
{121} 93 -37 0
{122} 93 -41 0
{123} 37 41 -93 0
{124} 94 37 0
{125} 94 -40 0
{126} -37 40 -94 0
{127} -94 -93 95 0
{128} -95 94 0
{129} -95 93 0
{130} 96 -37 0
{131} 96 -40 0
{132} 37 40 -96 0
{133} 97 37 0
{134} 97 -39 0
{135} -37 39 -97 0
{136} -97 -96 98 0
{137} -98 97 0
{138} -98 96 0
{139} 99 -37 0
{140} 99 -39 0
{141} 37 39 -99 0
{142} 100 37 0
{143} 100 -38 0
{144} -37 38 -100 0
{145} -100 -99 101 0
{146} -101 100 0
{147} -101 99 0
{148} 102 -37 0
{149} 102 -118 0
{150} 37 118 -102 0
{151} 120 37 0
{152} 120 -119 0
{153} -37 119 -120 0
{154} -120 -102 121 0
{155} -121 120 0
{156} -121 102 0
{157} 122 -37 0
{158} 122 -117 0
{159} 37 117 -122 0
{160} 123 37 0
{161} 123 -118 0
{162} -37 118 -123 0
{163} -123 -122 124 0
{164} -124 123 0
{165} -124 122 0
{166} 125 -37 0
{167} 125 -116 0
{168} 37 116 -125 0
{169} 126 37 0
{170} 126 -117 0
{171} -37 117 -126 0
{172} -126 -125 127 0
{173} -127 126 0
{174} -127 125 0
{175} 128 -37 0
{176} 128 -115 0
{177} 37 115 -128 0
{178} 129 37 0
{179} 129 -116 0
{180} -37 116 -129 0
{181} -129 -128 130 0
{182} -130 129 0
{183} -130 128 0
{184} 131 -37 0
{185} 131 -114 0
{186} 37 114 -131 0
{187} 132 37 0
{188} 132 -115 0
{189} -37 115 -132 0
{190} -132 -131 133 0
{191} -133 132 0
{192} -133 131 0
{193} 134 -37 0
{194} 134 -113 0
{195} 37 113 -134 0
{196} 135 37 0
{197} 135 -114 0
{198} -37 114 -135 0
{199} -135 -134 136 0
{200} -136 135 0
{201} -136 134 0
{202} 137 -37 0
{203} 137 -112 0
{204} 37 112 -137 0
{205} 138 37 0
{206} 138 -113 0
{207} -37 113 -138 0
{208} -138 -137 139 0
{209} -139 138 0
{210} -139 137 0
{211} 140 -37 0
{212} 140 -111 0
{213} 37 111 -140 0
{214} 141 37 0
{215} 141 -112 0
{216} -37 112 -141 0
{217} -141 -140 142 0
{218} -142 141 0
{219} -142 140 0
{220} 143 -37 0
{221} 143 -110 0
{222} 37 110 -143 0
{223} 144 37 0
{224} 144 -111 0
{225} -37 111 -144 0
{226} -144 -143 145 0
{227} -145 144 0
{228} -145 143 0
{229} 146 -37 0
{230} 146 -109 0
{231} 37 109 -146 0
{232} 147 37 0
{233} 147 -110 0
{234} -37 110 -147 0
{235} -147 -146 148 0
{236} -148 147 0
{237} -148 146 0
{238} 149 -37 0
{239} 149 -108 0
{240} 37 108 -149 0
{241} 150 37 0
{242} 150 -109 0
{243} -37 109 -150 0
{244} -150 -149 151 0
{245} -151 150 0
{246} -151 149 0
{247} 152 -37 0
{248} 152 -107 0
{249} 37 107 -152 0
{250} 153 37 0
{251} 153 -108 0
{252} -37 108 -153 0
{253} -153 -152 154 0
{254} -154 153 0
{255} -154 152 0
{256} 155 -37 0
{257} 155 -106 0
{258} 37 106 -155 0
{259} 156 37 0
{260} 156 -107 0
{261} -37 107 -156 0
{262} -156 -155 157 0
{263} -157 156 0
{264} -157 155 0
{265} 158 -37 0
{266} 158 -105 0
{267} 37 105 -158 0
{268} 159 37 0
{269} 159 -106 0
{270} -37 106 -159 0
{271} -159 -158 160 0
{272} -160 159 0
{273} -160 158 0
{274} 161 -37 0
{275} 161 -104 0
{276} 37 104 -161 0
{277} 162 37 0
{278} 162 -105 0
{279} -37 105 -162 0
{280} -162 -161 163 0
{281} -163 162 0
{282} -163 161 0
{283} 164 -37 0
{284} 164 -103 0
{285} 37 103 -164 0
{286} 165 37 0
{287} 165 -104 0
{288} -37 104 -165 0
{289} -165 -164 166 0
{290} -166 165 0
{291} -166 164 0
{292} 167 -37 0
{293} 167 -168 0
{294} 167 -185 0
{295} 37 168 185 -167 0
{296} -184 -118 186 0
{297} -186 184 0
{298} -186 118 0
{299} -184 -187 188 0
{300} -188 184 0
{301} -188 187 0
{302} -187 -118 189 0
{303} -189 187 0
{304} -189 118 0
{305} 190 -189 0
{306} 190 -188 0
{307} 190 -186 0
{308} 189 188 186 -190 0
{309} 191 185 119 0
{310} 191 -185 -119 0
{311} -191 185 -119 0
{312} -191 -185 119 0
{313} 192 191 190 0
{314} 192 -191 -190 0
{315} -192 191 -190 0
{316} -192 -191 190 0
{317} 193 -37 0
{318} 193 38 0
{319} 193 -185 0
{320} 193 -119 0
{321} 193 -192 0
{322} 37 -38 185 119 192 -193 0
{323} 194 37 0
{324} 194 -185 0
{325} -37 185 -194 0
{326} -194 -193 -167 195 0
{327} -195 194 0
{328} -195 193 0
{329} -195 167 0
{330} 196 -37 0
{331} 196 -168 0
{332} 196 -184 0
{333} 37 168 184 -196 0
{334} -183 -117 197 0
{335} -197 183 0
{336} -197 117 0
{337} -183 -198 199 0
{338} -199 183 0
{339} -199 198 0
{340} -198 -117 200 0
{341} -200 198 0
{342} -200 117 0
{343} 187 -200 0
{344} 187 -199 0
{345} 187 -197 0
{346} 200 199 197 -187 0
{347} 201 184 118 0
{348} 201 -184 -118 0
{349} -201 184 -118 0
{350} -201 -184 118 0
{351} 202 201 187 0
{352} 202 -201 -187 0
{353} -202 201 -187 0
{354} -202 -201 187 0
{355} 203 -37 0
{356} 203 38 0
{357} 203 -185 0
{358} 203 -119 0
{359} 203 -202 0
{360} 37 -38 185 119 202 -203 0
{361} 204 37 0
{362} 204 -184 0
{363} -37 184 -204 0
{364} -204 -203 -196 205 0
{365} -205 204 0
{366} -205 203 0
{367} -205 196 0
{368} 206 -37 0
{369} 206 -168 0
{370} 206 -183 0
{371} 37 168 183 -206 0
{372} -182 -116 207 0
{373} -207 182 0
{374} -207 116 0
{375} -182 -208 209 0
{376} -209 182 0
{377} -209 208 0
{378} -208 -116 210 0
{379} -210 208 0
{380} -210 116 0
{381} 198 -210 0
{382} 198 -209 0
{383} 198 -207 0
{384} 210 209 207 -198 0
{385} 211 183 117 0
{386} 211 -183 -117 0
{387} -211 183 -117 0
{388} -211 -183 117 0
{389} 212 211 198 0
{390} 212 -211 -198 0
{391} -212 211 -198 0
{392} -212 -211 198 0
{393} 213 -37 0
{394} 213 38 0
{395} 213 -185 0
{396} 213 -119 0
{397} 213 -212 0
{398} 37 -38 185 119 212 -213 0
{399} 214 37 0
{400} 214 -183 0
{401} -37 183 -214 0
{402} -214 -213 -206 215 0
{403} -215 214 0
{404} -215 213 0
{405} -215 206 0
{406} 216 -37 0
{407} 216 -168 0
{408} 216 -182 0
{409} 37 168 182 -216 0
{410} -181 -115 217 0
{411} -217 181 0
{412} -217 115 0
{413} -181 -218 219 0
{414} -219 181 0
{415} -219 218 0
{416} -218 -115 220 0
{417} -220 218 0
{418} -220 115 0
{419} 208 -220 0
{420} 208 -219 0
{421} 208 -217 0
{422} 220 219 217 -208 0
{423} 221 182 116 0
{424} 221 -182 -116 0
{425} -221 182 -116 0
{426} -221 -182 116 0
{427} 222 221 208 0
{428} 222 -221 -208 0
{429} -222 221 -208 0
{430} -222 -221 208 0
{431} 223 -37 0
{432} 223 38 0
{433} 223 -185 0
{434} 223 -119 0
{435} 223 -222 0
{436} 37 -38 185 119 222 -223 0
{437} 224 37 0
{438} 224 -182 0
{439} -37 182 -224 0
{440} -224 -223 -216 225 0
{441} -225 224 0
{442} -225 223 0
{443} -225 216 0
{444} 226 -37 0
{445} 226 -168 0
{446} 226 -181 0
{447} 37 168 181 -226 0
{448} -180 -114 227 0
{449} -227 180 0
{450} -227 114 0
{451} -180 -228 229 0
{452} -229 180 0
{453} -229 228 0
{454} -228 -114 230 0
{455} -230 228 0
{456} -230 114 0
{457} 218 -230 0
{458} 218 -229 0
{459} 218 -227 0
{460} 230 229 227 -218 0
{461} 231 181 115 0
{462} 231 -181 -115 0
{463} -231 181 -115 0
{464} -231 -181 115 0
{465} 232 231 218 0
{466} 232 -231 -218 0
{467} -232 231 -218 0
{468} -232 -231 218 0
{469} 233 -37 0
{470} 233 38 0
{471} 233 -185 0
{472} 233 -119 0
{473} 233 -232 0
{474} 37 -38 185 119 232 -233 0
{475} 234 37 0
{476} 234 -181 0
{477} -37 181 -234 0
{478} -234 -233 -226 235 0
{479} -235 234 0
{480} -235 233 0
{481} -235 226 0
{482} 236 -37 0
{483} 236 -168 0
{484} 236 -180 0
{485} 37 168 180 -236 0
{486} -179 -113 237 0
{487} -237 179 0
{488} -237 113 0
{489} -179 -238 239 0
{490} -239 179 0
{491} -239 238 0
{492} -238 -113 240 0
{493} -240 238 0
{494} -240 113 0
{495} 228 -240 0
{496} 228 -239 0
{497} 228 -237 0
{498} 240 239 237 -228 0
{499} 241 180 114 0
{500} 241 -180 -114 0
{501} -241 180 -114 0
{502} -241 -180 114 0
{503} 242 241 228 0
{504} 242 -241 -228 0
{505} -242 241 -228 0
{506} -242 -241 228 0
{507} 243 -37 0
{508} 243 38 0
{509} 243 -185 0
{510} 243 -119 0
{511} 243 -242 0
{512} 37 -38 185 119 242 -243 0
{513} 244 37 0
{514} 244 -180 0
{515} -37 180 -244 0
{516} -244 -243 -236 245 0
{517} -245 244 0
{518} -245 243 0
{519} -245 236 0
{520} 246 -37 0
{521} 246 -168 0
{522} 246 -179 0
{523} 37 168 179 -246 0
{524} -178 -112 247 0
{525} -247 178 0
{526} -247 112 0
{527} -178 -248 249 0
{528} -249 178 0
{529} -249 248 0
{530} -248 -112 250 0
{531} -250 248 0
{532} -250 112 0
{533} 238 -250 0
{534} 238 -249 0
{535} 238 -247 0
{536} 250 249 247 -238 0
{537} 251 179 113 0
{538} 251 -179 -113 0
{539} -251 179 -113 0
{540} -251 -179 113 0
{541} 252 251 238 0
{542} 252 -251 -238 0
{543} -252 251 -238 0
{544} -252 -251 238 0
{545} 253 -37 0
{546} 253 38 0
{547} 253 -185 0
{548} 253 -119 0
{549} 253 -252 0
{550} 37 -38 185 119 252 -253 0
{551} 254 37 0
{552} 254 -179 0
{553} -37 179 -254 0
{554} -254 -253 -246 255 0
{555} -255 254 0
{556} -255 253 0
{557} -255 246 0
{558} 256 -37 0
{559} 256 -168 0
{560} 256 -178 0
{561} 37 168 178 -256 0
{562} -177 -111 257 0
{563} -257 177 0
{564} -257 111 0
{565} -177 -258 259 0
{566} -259 177 0
{567} -259 258 0
{568} -258 -111 260 0
{569} -260 258 0
{570} -260 111 0
{571} 248 -260 0
{572} 248 -259 0
{573} 248 -257 0
{574} 260 259 257 -248 0
{575} 261 178 112 0
{576} 261 -178 -112 0
{577} -261 178 -112 0
{578} -261 -178 112 0
{579} 262 261 248 0
{580} 262 -261 -248 0
{581} -262 261 -248 0
{582} -262 -261 248 0
{583} 263 -37 0
{584} 263 38 0
{585} 263 -185 0
{586} 263 -119 0
{587} 263 -262 0
{588} 37 -38 185 119 262 -263 0
{589} 264 37 0
{590} 264 -178 0
{591} -37 178 -264 0
{592} -264 -263 -256 265 0
{593} -265 264 0
{594} -265 263 0
{595} -265 256 0
{596} 266 -37 0
{597} 266 -168 0
{598} 266 -177 0
{599} 37 168 177 -266 0
{600} -176 -110 267 0
{601} -267 176 0
{602} -267 110 0
{603} -176 -268 269 0
{604} -269 176 0
{605} -269 268 0
{606} -268 -110 270 0
{607} -270 268 0
{608} -270 110 0
{609} 258 -270 0
{610} 258 -269 0
{611} 258 -267 0
{612} 270 269 267 -258 0
{613} 271 177 111 0
{614} 271 -177 -111 0
{615} -271 177 -111 0
{616} -271 -177 111 0
{617} 272 271 258 0
{618} 272 -271 -258 0
{619} -272 271 -258 0
{620} -272 -271 258 0
{621} 273 -37 0
{622} 273 38 0
{623} 273 -185 0
{624} 273 -119 0
{625} 273 -272 0
{626} 37 -38 185 119 272 -273 0
{627} 274 37 0
{628} 274 -177 0
{629} -37 177 -274 0
{630} -274 -273 -266 275 0
{631} -275 274 0
{632} -275 273 0
{633} -275 266 0
{634} 276 -37 0
{635} 276 -168 0
{636} 276 -176 0
{637} 37 168 176 -276 0
{638} -175 -109 277 0
{639} -277 175 0
{640} -277 109 0
{641} -175 -278 279 0
{642} -279 175 0
{643} -279 278 0
{644} -278 -109 280 0
{645} -280 278 0
{646} -280 109 0
{647} 268 -280 0
{648} 268 -279 0
{649} 268 -277 0
{650} 280 279 277 -268 0
{651} 281 176 110 0
{652} 281 -176 -110 0
{653} -281 176 -110 0
{654} -281 -176 110 0
{655} 282 281 268 0
{656} 282 -281 -268 0
{657} -282 281 -268 0
{658} -282 -281 268 0
{659} 283 -37 0
{660} 283 38 0
{661} 283 -185 0
{662} 283 -119 0
{663} 283 -282 0
{664} 37 -38 185 119 282 -283 0
{665} 284 37 0
{666} 284 -176 0
{667} -37 176 -284 0
{668} -284 -283 -276 285 0
{669} -285 284 0
{670} -285 283 0
{671} -285 276 0
{672} 286 -37 0
{673} 286 -168 0
{674} 286 -175 0
{675} 37 168 175 -286 0
{676} -174 -108 287 0
{677} -287 174 0
{678} -287 108 0
{679} -174 -288 289 0
{680} -289 174 0
{681} -289 288 0
{682} -288 -108 290 0
{683} -290 288 0
{684} -290 108 0
{685} 278 -290 0
{686} 278 -289 0
{687} 278 -287 0
{688} 290 289 287 -278 0
{689} 291 175 109 0
{690} 291 -175 -109 0
{691} -291 175 -109 0
{692} -291 -175 109 0
{693} 292 291 278 0
{694} 292 -291 -278 0
{695} -292 291 -278 0
{696} -292 -291 278 0
{697} 293 -37 0
{698} 293 38 0
{699} 293 -185 0
{700} 293 -119 0
{701} 293 -292 0
{702} 37 -38 185 119 292 -293 0
{703} 294 37 0
{704} 294 -175 0
{705} -37 175 -294 0
{706} -294 -293 -286 295 0
{707} -295 294 0
{708} -295 293 0
{709} -295 286 0
{710} 296 -37 0
{711} 296 -168 0
{712} 296 -174 0
{713} 37 168 174 -296 0
{714} -173 -107 297 0
{715} -297 173 0
{716} -297 107 0
{717} -173 -298 299 0
{718} -299 173 0
{719} -299 298 0
{720} -298 -107 300 0
{721} -300 298 0
{722} -300 107 0
{723} 288 -300 0
{724} 288 -299 0
{725} 288 -297 0
{726} 300 299 297 -288 0
{727} 301 174 108 0
{728} 301 -174 -108 0
{729} -301 174 -108 0
{730} -301 -174 108 0
{731} 302 301 288 0
{732} 302 -301 -288 0
{733} -302 301 -288 0
{734} -302 -301 288 0
{735} 303 -37 0
{736} 303 38 0
{737} 303 -185 0
{738} 303 -119 0
{739} 303 -302 0
{740} 37 -38 185 119 302 -303 0
{741} 304 37 0
{742} 304 -174 0
{743} -37 174 -304 0
{744} -304 -303 -296 305 0
{745} -305 304 0
{746} -305 303 0
{747} -305 296 0
{748} 306 -37 0
{749} 306 -168 0
{750} 306 -173 0
{751} 37 168 173 -306 0
{752} -172 -106 307 0
{753} -307 172 0
{754} -307 106 0
{755} -172 -308 309 0
{756} -309 172 0
{757} -309 308 0
{758} -308 -106 310 0
{759} -310 308 0
{760} -310 106 0
{761} 298 -310 0
{762} 298 -309 0
{763} 298 -307 0
{764} 310 309 307 -298 0
{765} 311 173 107 0
{766} 311 -173 -107 0
{767} -311 173 -107 0
{768} -311 -173 107 0
{769} 312 311 298 0
{770} 312 -311 -298 0
{771} -312 311 -298 0
{772} -312 -311 298 0
{773} 313 -37 0
{774} 313 38 0
{775} 313 -185 0
{776} 313 -119 0
{777} 313 -312 0
{778} 37 -38 185 119 312 -313 0
{779} 314 37 0
{780} 314 -173 0
{781} -37 173 -314 0
{782} -314 -313 -306 315 0
{783} -315 314 0
{784} -315 313 0
{785} -315 306 0
{786} 316 -37 0
{787} 316 -168 0
{788} 316 -172 0
{789} 37 168 172 -316 0
{790} -171 -105 317 0
{791} -317 171 0
{792} -317 105 0
{793} -171 -318 319 0
{794} -319 171 0
{795} -319 318 0
{796} -318 -105 320 0
{797} -320 318 0
{798} -320 105 0
{799} 308 -320 0
{800} 308 -319 0
{801} 308 -317 0
{802} 320 319 317 -308 0
{803} 321 172 106 0
{804} 321 -172 -106 0
{805} -321 172 -106 0
{806} -321 -172 106 0
{807} 322 321 308 0
{808} 322 -321 -308 0
{809} -322 321 -308 0
{810} -322 -321 308 0
{811} 323 -37 0
{812} 323 38 0
{813} 323 -185 0
{814} 323 -119 0
{815} 323 -322 0
{816} 37 -38 185 119 322 -323 0
{817} 324 37 0
{818} 324 -172 0
{819} -37 172 -324 0
{820} -324 -323 -316 325 0
{821} -325 324 0
{822} -325 323 0
{823} -325 316 0
{824} 326 -37 0
{825} 326 -168 0
{826} 326 -171 0
{827} 37 168 171 -326 0
{828} -170 -104 327 0
{829} -327 170 0
{830} -327 104 0
{831} -170 -169 -103 328 0
{832} -328 170 0
{833} -328 169 0
{834} -328 103 0
{835} -169 -103 -104 329 0
{836} -329 169 0
{837} -329 103 0
{838} -329 104 0
{839} 318 -329 0
{840} 318 -328 0
{841} 318 -327 0
{842} 329 328 327 -318 0
{843} 330 171 105 0
{844} 330 -171 -105 0
{845} -330 171 -105 0
{846} -330 -171 105 0
{847} 331 330 318 0
{848} 331 -330 -318 0
{849} -331 330 -318 0
{850} -331 -330 318 0
{851} 332 -37 0
{852} 332 38 0
{853} 332 -185 0
{854} 332 -119 0
{855} 332 -331 0
{856} 37 -38 185 119 331 -332 0
{857} 333 37 0
{858} 333 -171 0
{859} -37 171 -333 0
{860} -333 -332 -326 334 0
{861} -334 333 0
{862} -334 332 0
{863} -334 326 0
{864} 335 -37 0
{865} 335 -168 0
{866} 335 -170 0
{867} 37 168 170 -335 0
{868} -169 -103 336 0
{869} -336 169 0
{870} -336 103 0
{871} 337 170 104 0
{872} 337 -170 -104 0
{873} -337 170 -104 0
{874} -337 -170 104 0
{875} 338 337 336 0
{876} 338 -337 -336 0
{877} -338 337 -336 0
{878} -338 -337 336 0
{879} 339 -37 0
{880} 339 38 0
{881} 339 -185 0
{882} 339 -119 0
{883} 339 -338 0
{884} 37 -38 185 119 338 -339 0
{885} 340 37 0
{886} 340 -170 0
{887} -37 170 -340 0
{888} -340 -339 -335 341 0
{889} -341 340 0
{890} -341 339 0
{891} -341 335 0
{892} -38 185 119 168 0
{893} -168 38 0
{894} -168 -185 0
{895} -168 -119 0
{896} 342 -37 0
{897} 342 -168 0
{898} 342 -169 0
{899} 37 168 169 -342 0
{900} 343 169 -103 0
{901} 343 -169 103 0
{902} -343 169 103 0
{903} -343 -169 -103 0
{904} 344 -37 0
{905} 344 38 0
{906} 344 -185 0
{907} 344 -119 0
{908} 344 -343 0
{909} 37 -38 185 119 343 -344 0
{910} 345 37 0
{911} 345 -169 0
{912} -37 169 -345 0
{913} -345 -344 -342 346 0
{914} -346 345 0
{915} -346 344 0
{916} -346 342 0
{917} 347 -185 0
{918} 347 -119 0
{919} 347 -348 0
{920} 185 119 348 -347 0
{921} 54 53 52 51 50 49 48 47 46 45 44 43 42 41 40 39 38 349 0
{922} -349 -54 0
{923} -349 -53 0
{924} -349 -52 0
{925} -349 -51 0
{926} -349 -50 0
{927} -349 -49 0
{928} -349 -48 0
{929} -349 -47 0
{930} -349 -46 0
{931} -349 -45 0
{932} -349 -44 0
{933} -349 -43 0
{934} -349 -42 0
{935} -349 -41 0
{936} -349 -40 0
{937} -349 -39 0
{938} -349 -38 0
{939} 350 -185 0
{940} 350 -119 0
{941} 350 -349 0
{942} 350 -37 0
{943} 185 119 349 37 -350 0
{944} -37 0
{945} -348 0
{946} -169 0
{947} -170 0
{948} -171 0
{949} -172 0
{950} -173 0
{951} -174 0
{952} -175 0
{953} -176 0
{954} -177 0
{955} -178 0
{956} -179 0
{957} -180 0
{958} -181 0
{959} -182 0
{960} -183 0
{961} -184 0
{962} -185 0
{963} -103 351 0
{964} 103 -351 0
{965} -104 352 0
{966} 104 -352 0
{967} -105 353 0
{968} 105 -353 0
{969} -106 354 0
{970} 106 -354 0
{971} -107 355 0
{972} 107 -355 0
{973} -108 356 0
{974} 108 -356 0
{975} -109 357 0
{976} 109 -357 0
{977} -110 358 0
{978} 110 -358 0
{979} -111 359 0
{980} 111 -359 0
{981} -112 360 0
{982} 112 -360 0
{983} -113 361 0
{984} 113 -361 0
{985} -114 362 0
{986} 114 -362 0
{987} -115 363 0
{988} 115 -363 0
{989} -116 364 0
{990} 116 -364 0
{991} -117 365 0
{992} 117 -365 0
{993} -118 366 0
{994} 118 -366 0
{995} -119 367 0
{996} 119 -367 0
{997} -38 368 0
{998} 38 -368 0
{999} -39 369 0
{1000} 39 -369 0
{1001} -40 370 0
{1002} 40 -370 0
{1003} -41 371 0
{1004} 41 -371 0
{1005} -42 372 0
{1006} 42 -372 0
{1007} -43 373 0
{1008} 43 -373 0
{1009} -44 374 0
{1010} 44 -374 0
{1011} -45 375 0
{1012} 45 -375 0
{1013} -46 376 0
{1014} 46 -376 0
{1015} -47 377 0
{1016} 47 -377 0
{1017} -48 378 0
{1018} 48 -378 0
{1019} -49 379 0
{1020} 49 -379 0
{1021} -50 380 0
{1022} 50 -380 0
{1023} -51 381 0
{1024} 51 -381 0
{1025} -52 382 0
{1026} 52 -382 0
{1027} -53 383 0
{1028} 53 -383 0
{1029} -54 384 0
{1030} 54 -384 0
{1031} -2 351 0
{1032} 2 -351 0
{1033} -3 352 0
{1034} 3 -352 0
{1035} -4 353 0
{1036} 4 -353 0
{1037} -5 354 0
{1038} 5 -354 0
{1039} -6 355 0
{1040} 6 -355 0
{1041} -7 356 0
{1042} 7 -356 0
{1043} -8 357 0
{1044} 8 -357 0
{1045} -9 358 0
{1046} 9 -358 0
{1047} -10 359 0
{1048} 10 -359 0
{1049} -11 360 0
{1050} 11 -360 0
{1051} -12 361 0
{1052} 12 -361 0
{1053} -13 362 0
{1054} 13 -362 0
{1055} -14 363 0
{1056} 14 -363 0
{1057} -15 364 0
{1058} 15 -364 0
{1059} -16 365 0
{1060} 16 -365 0
{1061} -17 366 0
{1062} 17 -366 0
{1063} -18 367 0
{1064} 18 -367 0
{1065} -19 368 0
{1066} 19 -368 0
{1067} -20 369 0
{1068} 20 -369 0
{1069} -21 370 0
{1070} 21 -370 0
{1071} -22 371 0
{1072} 22 -371 0
{1073} -23 372 0
{1074} 23 -372 0
{1075} -24 373 0
{1076} 24 -373 0
{1077} -25 374 0
{1078} 25 -374 0
{1079} -26 375 0
{1080} 26 -375 0
{1081} -27 376 0
{1082} 27 -376 0
{1083} -28 377 0
{1084} 28 -377 0
{1085} -29 378 0
{1086} 29 -378 0
{1087} -30 379 0
{1088} 30 -379 0
{1089} -31 380 0
{1090} 31 -380 0
{1091} -32 381 0
{1092} 32 -381 0
{1093} -33 382 0
{1094} 33 -382 0
{1095} -34 383 0
{1096} 34 -383 0
{1097} -35 384 0
{1098} 35 -384 0
{1099} -385 350 0
{1100} 385 -350 0
{1101} -386 347 0
{1102} 386 -347 0
{1103} -387 346 0
{1104} 387 -346 0
{1105} -388 341 0
{1106} 388 -341 0
{1107} -389 334 0
{1108} 389 -334 0
{1109} -390 325 0
{1110} 390 -325 0
{1111} -391 315 0
{1112} 391 -315 0
{1113} -392 305 0
{1114} 392 -305 0
{1115} -393 295 0
{1116} 393 -295 0
{1117} -394 285 0
{1118} 394 -285 0
{1119} -395 275 0
{1120} 395 -275 0
{1121} -396 265 0
{1122} 396 -265 0
{1123} -397 255 0
{1124} 397 -255 0
{1125} -398 245 0
{1126} 398 -245 0
{1127} -399 235 0
{1128} 399 -235 0
{1129} -400 225 0
{1130} 400 -225 0
{1131} -401 215 0
{1132} 401 -215 0
{1133} -402 205 0
{1134} 402 -205 0
{1135} -403 195 0
{1136} 403 -195 0
{1137} -404 0
{1138} -405 166 0
{1139} 405 -166 0
{1140} -406 163 0
{1141} 406 -163 0
{1142} -407 160 0
{1143} 407 -160 0
{1144} -408 157 0
{1145} 408 -157 0
{1146} -409 154 0
{1147} 409 -154 0
{1148} -410 151 0
{1149} 410 -151 0
{1150} -411 148 0
{1151} 411 -148 0
{1152} -412 145 0
{1153} 412 -145 0
{1154} -413 142 0
{1155} 413 -142 0
{1156} -414 139 0
{1157} 414 -139 0
{1158} -415 136 0
{1159} 415 -136 0
{1160} -416 133 0
{1161} 416 -133 0
{1162} -417 130 0
{1163} 417 -130 0
{1164} -418 127 0
{1165} 418 -127 0
{1166} -419 124 0
{1167} 419 -124 0
{1168} -420 121 0
{1169} 420 -121 0
{1170} -421 101 0
{1171} 421 -101 0
{1172} -422 98 0
{1173} 422 -98 0
{1174} -423 95 0
{1175} 423 -95 0
{1176} -424 92 0
{1177} 424 -92 0
{1178} -425 89 0
{1179} 425 -89 0
{1180} -426 86 0
{1181} 426 -86 0
{1182} -427 83 0
{1183} 427 -83 0
{1184} -428 80 0
{1185} 428 -80 0
{1186} -429 77 0
{1187} 429 -77 0
{1188} -430 74 0
{1189} 430 -74 0
{1190} -431 71 0
{1191} 431 -71 0
{1192} -432 68 0
{1193} 432 -68 0
{1194} -433 65 0
{1195} 433 -65 0
{1196} -434 62 0
{1197} 434 -62 0
{1198} -435 59 0
{1199} 435 -59 0
{1200} -436 56 0
{1201} 436 -56 0
{1202} -437 0
{1203} 385 0
{1204} -386 0
{1205} -387 1 0
{1206} 387 -1 0
c restrict -1206 1103 0
c restrict -1103 1206 0
c restrict -1031 964 0
c restrict -964 1 0
c restrict -1 1031 0
c restrict -1065 998 0
c restrict -998 2 0
c restrict -2 1065 0
c restrict -1205 1104 0
c restrict -1104 1066 0
c restrict -1066 1032 0
c restrict -1032 997 0
c restrict -997 963 0
c restrict -963 3 0
c restrict -3 1205 0
c restrict -897 892 0
c restrict -892 897 0
c restrict -916 899 0
c restrict -899 916 0
c restrict -914 912 0
c restrict -912 914 0
c restrict -1204 1102 0
c restrict -1102 1204 0
c restrict -1203 1099 0
c restrict -1099 943 0
c restrict -943 938 0
c restrict -938 1203 0
c restrict -893 916 0
c restrict -894 916 0
c restrict -895 916 0
c restrict -896 911 0
c restrict -897 913 0
c restrict -897 1065 0
c restrict -898 913 0
c restrict -900 908 0
c restrict -900 1031 0
c restrict -901 905 0
c restrict -901 908 0
c restrict -901 1205 0
c restrict -902 893 0
c restrict -902 909 0
c restrict -902 1205 0
c restrict -903 909 0
c restrict -903 1031 0
c restrict -903 1065 0
c restrict -910 913 0
c restrict -911 913 0
c restrict -917 1204 0
c restrict -918 1204 0
c restrict -1031 1206 0
c restrict -1065 1206 0
